solution status: optimal solution found
objective value:                              3128900
v#3$Producto D                                      1 	(obj:0)
v#4$Producto E                                      1 	(obj:0)
v#5$Producto A                                      1 	(obj:0)
v#5$Producto D                                      1 	(obj:0)
v#7$Producto A                                      1 	(obj:0)
v#7$Producto B                                      1 	(obj:0)
v#7$Producto C                                      1 	(obj:0)
v#8$Producto B                                      1 	(obj:0)
v#8$Producto C                                      1 	(obj:0)
v#8$Producto D                                      1 	(obj:0)
v#8$Producto E                                      1 	(obj:0)
v#9$Producto B                                      1 	(obj:0)
v#9$Producto E                                      1 	(obj:0)
v#18$Producto D                                     1 	(obj:0)
v#18$Producto E                                     1 	(obj:0)
v#19$Producto A                                     1 	(obj:0)
v#19$Producto B                                     1 	(obj:0)
v#19$Producto D                                     1 	(obj:0)
v#19$Producto E                                     1 	(obj:0)
v#20$Producto B                                     1 	(obj:0)
v#20$Producto D                                     1 	(obj:0)
v#20$Producto E                                     1 	(obj:0)
v#21$Producto B                                     1 	(obj:0)
w#1$Producto A                                     10 	(obj:0)
w#1$Producto B                                     12 	(obj:0)
w#1$Producto C                                      2 	(obj:0)
w#1$Producto D                                      2 	(obj:0)
w#1$Producto E                                      4 	(obj:0)
w#2$Producto A                                     12 	(obj:0)
w#2$Producto B                                     12 	(obj:0)
w#2$Producto C                                      4 	(obj:0)
w#2$Producto D                                      2 	(obj:0)
w#3$Producto A                                     12 	(obj:0)
w#3$Producto B                                     12 	(obj:0)
w#3$Producto C                                      3 	(obj:0)
w#3$Producto E                                      3 	(obj:0)
w#4$Producto A                                     12 	(obj:0)
w#4$Producto B                                     12 	(obj:0)
w#4$Producto D                                      2 	(obj:0)
w#4$Producto E                                      4 	(obj:0)
w#5$Producto A                                     12 	(obj:0)
w#5$Producto B                                     12 	(obj:0)
w#5$Producto D                                      2 	(obj:0)
w#5$Producto E                                      4 	(obj:0)
w#6$Producto C                                     12 	(obj:0)
w#6$Producto D                                      7 	(obj:0)
w#6$Producto E                                     11 	(obj:0)
w#7$Producto B                                      8 	(obj:0)
w#7$Producto D                                     10 	(obj:0)
w#7$Producto E                                     12 	(obj:0)
w#8$Producto C                       7.00000000000003 	(obj:0)
w#8$Producto D                                     11 	(obj:0)
w#8$Producto E                                     12 	(obj:0)
w#9$Producto A                                      3 	(obj:0)
w#9$Producto C                                      7 	(obj:0)
w#9$Producto D                                      8 	(obj:0)
w#9$Producto E                                     12 	(obj:0)
w#10$Producto A                                     6 	(obj:0)
w#10$Producto B                                     6 	(obj:0)
w#10$Producto C                                     3 	(obj:0)
w#10$Producto D                                     3 	(obj:0)
w#10$Producto E                                    12 	(obj:0)
w#11$Producto A                      3.99999999999998 	(obj:0)
w#11$Producto B                                     4 	(obj:0)
w#11$Producto C                                     4 	(obj:0)
w#11$Producto D                                     4 	(obj:0)
w#11$Producto E                                     1 	(obj:0)
w#12$Producto A                                    12 	(obj:0)
w#12$Producto B                                    12 	(obj:0)
w#13$Producto A                                    12 	(obj:0)
w#13$Producto B                                    12 	(obj:0)
w#13$Producto D                                     1 	(obj:0)
w#13$Producto E                                     2 	(obj:0)
w#14$Producto A                                    12 	(obj:0)
w#14$Producto B                                    12 	(obj:0)
w#14$Producto C                     0.999999999999999 	(obj:0)
w#14$Producto D                                     2 	(obj:0)
w#14$Producto E                                     3 	(obj:0)
w#15$Producto A                                    12 	(obj:0)
w#15$Producto B                                    12 	(obj:0)
w#15$Producto C                                     2 	(obj:0)
w#15$Producto D                      2.00000000000001 	(obj:0)
w#16$Producto A                                    12 	(obj:0)
w#16$Producto B                                     7 	(obj:0)
w#16$Producto C                                     5 	(obj:0)
w#16$Producto D                      1.99999999999999 	(obj:0)
w#16$Producto E                                     4 	(obj:0)
w#17$Producto A                                     7 	(obj:0)
w#17$Producto B                                    12 	(obj:0)
w#17$Producto D                                     5 	(obj:0)
w#17$Producto E                                     6 	(obj:0)
w#18$Producto A                                    12 	(obj:0)
w#18$Producto C                                     6 	(obj:0)
w#18$Producto D                                     4 	(obj:0)
w#18$Producto E                                     8 	(obj:0)
w#19$Producto C                                    10 	(obj:0)
w#19$Producto D                                     8 	(obj:0)
w#19$Producto E                                    12 	(obj:0)
w#20$Producto C                      8.00000000000004 	(obj:0)
w#20$Producto D                      9.99999999999996 	(obj:0)
w#20$Producto E                                    12 	(obj:0)
w#21$Producto A                                     1 	(obj:0)
w#21$Producto C                                     8 	(obj:0)
w#21$Producto D                                     9 	(obj:0)
w#21$Producto E                                    12 	(obj:0)
w#22$Producto A                                     6 	(obj:0)
w#22$Producto B                                     6 	(obj:0)
w#22$Producto C                                     3 	(obj:0)
w#22$Producto D                                     3 	(obj:0)
w#22$Producto E                                    12 	(obj:0)
w#23$Producto A                                     5 	(obj:0)
w#23$Producto B                                     6 	(obj:0)
w#23$Producto C                                     2 	(obj:0)
w#23$Producto D                                     3 	(obj:0)
w#23$Producto E                                     1 	(obj:0)
x#1$Producto A                                    100 	(obj:370)
x#1$Producto B                                    120 	(obj:370)
x#1$Producto C                                     20 	(obj:370)
x#1$Producto D                                     20 	(obj:370)
x#1$Producto E                                     40 	(obj:370)
x#2$Producto A                                    120 	(obj:370)
x#2$Producto B                                    120 	(obj:370)
x#2$Producto C                                     40 	(obj:370)
x#2$Producto D                                     20 	(obj:370)
x#3$Producto A                                    120 	(obj:370)
x#3$Producto B                                    120 	(obj:370)
x#3$Producto C                                     30 	(obj:370)
x#3$Producto E                                     30 	(obj:370)
x#4$Producto A                                    120 	(obj:370)
x#4$Producto B                                    120 	(obj:370)
x#4$Producto D                                     20 	(obj:370)
x#4$Producto E                                     40 	(obj:370)
x#5$Producto A                                    120 	(obj:370)
x#5$Producto B                                    120 	(obj:370)
x#5$Producto D                                     20 	(obj:370)
x#5$Producto E                                     40 	(obj:370)
x#6$Producto C                                    120 	(obj:370)
x#6$Producto D                                     70 	(obj:370)
x#6$Producto E                                    110 	(obj:370)
x#7$Producto B                                     80 	(obj:370)
x#7$Producto D                                    100 	(obj:370)
x#7$Producto E                                    120 	(obj:370)
x#8$Producto C                       70.0000000000003 	(obj:370)
x#8$Producto D                                    110 	(obj:370)
x#8$Producto E                                    120 	(obj:370)
x#9$Producto A                                     30 	(obj:370)
x#9$Producto C                                     70 	(obj:370)
x#9$Producto D                                     80 	(obj:370)
x#9$Producto E                                    120 	(obj:370)
x#10$Producto A                                    60 	(obj:370)
x#10$Producto B                                    60 	(obj:370)
x#10$Producto C                                    30 	(obj:370)
x#10$Producto D                                    30 	(obj:370)
x#10$Producto E                                   120 	(obj:370)
x#11$Producto A                      39.9999999999998 	(obj:370)
x#11$Producto B                                    40 	(obj:370)
x#11$Producto C                                    40 	(obj:370)
x#11$Producto D                                    40 	(obj:370)
x#11$Producto E                                    10 	(obj:370)
x#12$Producto A                                   120 	(obj:370)
x#12$Producto B                                   120 	(obj:370)
x#13$Producto A                                   120 	(obj:370)
x#13$Producto B                                   120 	(obj:370)
x#13$Producto D                                    10 	(obj:370)
x#13$Producto E                                    20 	(obj:370)
x#14$Producto A                                   120 	(obj:370)
x#14$Producto B                                   120 	(obj:370)
x#14$Producto C                      9.99999999999999 	(obj:370)
x#14$Producto D                                    20 	(obj:370)
x#14$Producto E                                    30 	(obj:370)
x#15$Producto A                                   120 	(obj:370)
x#15$Producto B                                   120 	(obj:370)
x#15$Producto C                                    20 	(obj:370)
x#15$Producto D                      20.0000000000001 	(obj:370)
x#16$Producto A                                   120 	(obj:370)
x#16$Producto B                                    70 	(obj:370)
x#16$Producto C                                    50 	(obj:370)
x#16$Producto D                      19.9999999999999 	(obj:370)
x#16$Producto E                                    40 	(obj:370)
x#17$Producto A                                    70 	(obj:370)
x#17$Producto B                                   120 	(obj:370)
x#17$Producto D                                    50 	(obj:370)
x#17$Producto E                                    60 	(obj:370)
x#18$Producto A                                   120 	(obj:370)
x#18$Producto C                                    60 	(obj:370)
x#18$Producto D                                    40 	(obj:370)
x#18$Producto E                                    80 	(obj:370)
x#19$Producto C                                   100 	(obj:370)
x#19$Producto D                                    80 	(obj:370)
x#19$Producto E                                   120 	(obj:370)
x#20$Producto C                      80.0000000000004 	(obj:370)
x#20$Producto D                      99.9999999999996 	(obj:370)
x#20$Producto E                                   120 	(obj:370)
x#21$Producto A                                    10 	(obj:370)
x#21$Producto C                                    80 	(obj:370)
x#21$Producto D                                    90 	(obj:370)
x#21$Producto E                                   120 	(obj:370)
x#22$Producto A                                    60 	(obj:370)
x#22$Producto B                                    60 	(obj:370)
x#22$Producto C                                    30 	(obj:370)
x#22$Producto D                                    30 	(obj:370)
x#22$Producto E                                   120 	(obj:370)
x#23$Producto A                                    50 	(obj:370)
x#23$Producto B                                    60 	(obj:370)
x#23$Producto C                                    20 	(obj:370)
x#23$Producto D                                    30 	(obj:370)
x#23$Producto E                                    10 	(obj:370)
z#3$Producto D                                     20 	(obj:540)
z#4$Producto E                                     20 	(obj:540)
z#5$Producto A                       108.967338217338 	(obj:540)
z#5$Producto D                                     25 	(obj:540)
z#7$Producto A                       96.0326617826618 	(obj:540)
z#7$Producto B                       65.0000000000002 	(obj:540)
z#7$Producto C                                     20 	(obj:540)
z#8$Producto B                       99.9999999999998 	(obj:540)
z#8$Producto C                       39.9999999999998 	(obj:540)
z#8$Producto D                       20.0000000000003 	(obj:540)
z#8$Producto E                                     35 	(obj:540)
z#9$Producto B                                    170 	(obj:540)
z#9$Producto E                                     20 	(obj:540)
z#18$Producto D                                    25 	(obj:540)
z#18$Producto E                                    20 	(obj:540)
z#19$Producto A                      25.0000000000001 	(obj:540)
z#19$Producto B                      85.0000000000004 	(obj:540)
z#19$Producto D                                    25 	(obj:540)
z#19$Producto E                                    25 	(obj:540)
z#20$Producto B                                   115 	(obj:540)
z#20$Producto D                      25.0000000000004 	(obj:540)
z#20$Producto E                                    60 	(obj:540)
z#21$Producto B                                   175 	(obj:540)
s#1$Producto A                                     80 	(obj:0)
s#1$Producto B                                     90 	(obj:0)
s#1$Producto C                                     10 	(obj:0)
s#1$Producto D                                      5 	(obj:0)
s#1$Producto E                                     25 	(obj:0)
s#2$Producto A                                    175 	(obj:0)
s#2$Producto B                                    170 	(obj:0)
s#2$Producto C                                     35 	(obj:0)
s#2$Producto D                                      5 	(obj:0)
s#2$Producto E                                     10 	(obj:0)
s#3$Producto A                                    265 	(obj:0)
s#3$Producto B                                    250 	(obj:0)
s#3$Producto C                                     50 	(obj:0)
s#3$Producto D                                      5 	(obj:0)
s#3$Producto E                                     20 	(obj:0)
s#4$Producto A                                    345 	(obj:0)
s#4$Producto B                                    325 	(obj:0)
s#4$Producto C                                     30 	(obj:0)
s#4$Producto D                                      5 	(obj:0)
s#4$Producto E                                     55 	(obj:0)
s#5$Producto A                       513.967338217338 	(obj:0)
s#5$Producto B                                    355 	(obj:0)
s#5$Producto D                                      5 	(obj:0)
s#5$Producto E                                     25 	(obj:0)
s#6$Producto A                       413.967338217338 	(obj:0)
s#6$Producto B                                    215 	(obj:0)
s#6$Producto C                                     70 	(obj:0)
s#6$Producto D                                      5 	(obj:0)
s#6$Producto E                                     35 	(obj:0)
s#7$Producto A                                    330 	(obj:0)
s#7$Producto B                                    150 	(obj:0)
s#7$Producto E                                      5 	(obj:0)
s#8$Producto A                                    120 	(obj:0)
s#8$Producto C                       5.00000000000008 	(obj:0)
s#8$Producto D                       4.99999999999997 	(obj:0)
s#10$Producto E                                    50 	(obj:0)
s#11$Producto A                      9.99999999999991 	(obj:0)
s#11$Producto C                                    25 	(obj:0)
s#11$Producto D                                    20 	(obj:0)
s#11$Producto E                                    20 	(obj:0)
s#12$Producto A                                   110 	(obj:0)
s#12$Producto B                                    95 	(obj:0)
s#12$Producto C                                    15 	(obj:0)
s#12$Producto D                                     5 	(obj:0)
s#13$Producto A                                   210 	(obj:0)
s#13$Producto B                                   185 	(obj:0)
s#13$Producto C                      5.00000000000001 	(obj:0)
s#13$Producto E                                     5 	(obj:0)
s#14$Producto A                                   305 	(obj:0)
s#14$Producto B                                   265 	(obj:0)
s#14$Producto E                                    20 	(obj:0)
s#15$Producto A                                   395 	(obj:0)
s#15$Producto B                                   345 	(obj:0)
s#15$Producto C                      5.00000000000001 	(obj:0)
s#16$Producto A                                   475 	(obj:0)
s#16$Producto B                                   370 	(obj:0)
s#16$Producto C                                    35 	(obj:0)
s#16$Producto E                                    15 	(obj:0)
s#17$Producto A                                   485 	(obj:0)
s#17$Producto B                                   400 	(obj:0)
s#17$Producto C                      5.00000000000001 	(obj:0)
s#17$Producto D                                     5 	(obj:0)
s#17$Producto E                                     5 	(obj:0)
s#18$Producto A                                   505 	(obj:0)
s#18$Producto B                                   260 	(obj:0)
s#18$Producto C                                    15 	(obj:0)
s#18$Producto E                                     5 	(obj:0)
s#19$Producto A                                   350 	(obj:0)
s#19$Producto B                                   135 	(obj:0)
s#19$Producto C                      24.9999999999997 	(obj:0)
s#20$Producto A                                   140 	(obj:0)
s#20$Producto E                                    20 	(obj:0)
s#21$Producto B                                     5 	(obj:0)
s#21$Producto C                                     5 	(obj:0)
s#21$Producto D                                     5 	(obj:0)
s#22$Producto B                                     5 	(obj:0)
s#22$Producto C                                     5 	(obj:0)
s#22$Producto D                                     5 	(obj:0)
s#22$Producto E                                    50 	(obj:0)
s#23$Producto A                                    20 	(obj:0)
s#23$Producto B                                    25 	(obj:0)
s#23$Producto C                                    10 	(obj:0)
s#23$Producto D                                    15 	(obj:0)
s#23$Producto E                                    20 	(obj:0)
